



8 8
4 18 7 19 5 15 0 10 3 2 1 5 2 11 6 12
0 9 4 12 2 3 1 17 6 1 7 1 5 7 3 15
0 11 3 9 5 14 6 3 7 4 2 3 1 12 4 14
7 17 3 9 6 9 2 9 4 3 0 4 5 13 1 15
7 1 4 5 1 4 2 14 0 12 3 14 6 14 5 12
4 17 1 15 2 17 3 2 6 9 7 1 0 5 5 7
5 14 0 8 1 16 3 10 7 19 6 9 2 16 4 12
2 7 0 16 5 2 3 13 7 4 1 19 6 16 4 4
